(set-logic QF_S)
(declare-fun var_0xINPUT_222085 () String)
(assert (and (= (len var_0xINPUT_222085) 0) (= (len var_0xINPUT_222085) 0) (= (len var_0xINPUT_222085) 0) (= (len var_0xINPUT_222085) 0) (not (= (len var_0xINPUT_222085) 0)) (= (len var_0xINPUT_222085) 0) (not (= var_0xINPUT_222085 "4PH2ujcENG")) (not (= var_0xINPUT_222085 "4PH2ujcENG")) (not (= (len var_0xINPUT_222085) 0)) (= (len var_0xINPUT_222085) 0) (not (= var_0xINPUT_222085 "4PH2ujcENG")) (not (= var_0xINPUT_222085 "4PH2ujcENG")) (not (= (len var_0xINPUT_222085) 0)) (= (len var_0xINPUT_222085) 0) (not (= var_0xINPUT_222085 "4PH2ujcENG")) (not (= var_0xINPUT_222085 "4PH2ujcENG")) (not (= (len var_0xINPUT_222085) 0)) (= (len var_0xINPUT_222085) 0) (not (= var_0xINPUT_222085 "4PH2ujcENG")) (not (= var_0xINPUT_222085 "4PH2ujcENG")) (not (= (len var_0xINPUT_222085) 0))))
(check-sat var_0xINPUT_222085)